[2026-03-24T00:33:33.464Z] Pipeline "set_set_set_s003_g010" → 2026_03_24_00_33_33_set_set_set_s003_g010_max.sol
Set parameter WLSAccessID
Set parameter WLSSecret
Set parameter LicenseID to value 2792458
Set parameter LogFile to value "gurobi.log"
Using license file /root/gurobi.lic
Academic license 2792458 - for non-commercial use only - registered to an___@studenti.unipg.it

Gurobi Optimizer version 13.0.1 build v13.0.1rc0 (linux64 - "Ubuntu 24.04.4 LTS")
Copyright (c) 2026, Gurobi Optimization, LLC

Warning: Duplicate section found (read 'binary') - Is a variable name equal to an LP file format keyword?
Warning: Duplicate section found (read 'binary') - Is a variable name equal to an LP file format keyword?
Warning: Duplicate section found (read 'binary') - Is a variable name equal to an LP file format keyword?
Warning: Duplicate section found (read 'binary') - Is a variable name equal to an LP file format keyword?
Warning: Duplicate section found (read 'binary') - Is a variable name equal to an LP file format keyword?
Warning: Duplicate section found (read 'binary') - Is a variable name equal to an LP file format keyword?
Warning: Duplicate section found (read 'binary') - Is a variable name equal to an LP file format keyword?
Warning: Duplicate section found (read 'binary') - Is a variable name equal to an LP file format keyword?
Warning: Duplicate section found (read 'binary') - Is a variable name equal to an LP file format keyword?
Warning: Duplicate section found (read 'binary') - Is a variable name equal to an LP file format keyword?
Warning: Further warnings of this type will be omitted.
Read LP format model from file /root/bgw/data/uploads/2026_03_24_00_33_33_set_set_set_s003_g010_max.lp
Reading time = 0.00 seconds
: 348 rows, 76 columns, 900 nonzeros

Using Gurobi shared library /opt/gurobi1301/linux64/lib/libgurobi.so.13.0.1

CPU model: AMD EPYC-Genoa Processor, instruction set [SSE2|AVX|AVX2|AVX512]
Thread count: 16 physical cores, 16 logical processors, using up to 16 threads

Academic license 2792458 - for non-commercial use only - registered to an___@studenti.unipg.it
Optimize a model with 348 rows, 76 columns and 900 nonzeros (Max)
Model fingerprint: 0x4c38e8dd
Model has 16 linear objective coefficients
Variable types: 24 continuous, 52 integer (52 binary)
Coefficient statistics:
  Matrix range     [1e+00, 9e+00]
  Objective range  [1e+00, 1e+00]
  Bounds range     [1e+00, 1e+00]
  RHS range        [1e+00, 1e+01]

Found heuristic solution: objective 16.0000000
Presolve removed 204 rows and 29 columns
Presolve time: 0.00s
Presolved: 144 rows, 47 columns, 462 nonzeros
Variable types: 0 continuous, 47 integer (41 binary)
Found heuristic solution: objective 37.0000000

Root relaxation: objective 7.600000e+01, 34 iterations, 0.00 seconds (0.00 work units)

    Nodes    |    Current Node    |     Objective Bounds      |     Work
 Expl Unexpl |  Obj  Depth IntInf | Incumbent    BestBd   Gap | It/Node Time

     0     0   76.00000    0   14   37.00000   76.00000   105%     -    0s
H    0     0                      40.0000000   76.00000  90.0%     -    0s
     0     0   76.00000    0   20   40.00000   76.00000  90.0%     -    0s
     0     0   71.00000    0   19   40.00000   71.00000  77.5%     -    0s
     0     0   71.00000    0   19   40.00000   71.00000  77.5%     -    0s
     0     0   71.00000    0   21   40.00000   71.00000  77.5%     -    0s
     0     0   71.00000    0   14   40.00000   71.00000  77.5%     -    0s
     0     0   68.66667    0   19   40.00000   68.66667  71.7%     -    0s
     0     0   68.66667    0   14   40.00000   68.66667  71.7%     -    0s
     0     0   67.50000    0   20   40.00000   67.50000  68.8%     -    0s
     0     0   67.50000    0   14   40.00000   67.50000  68.8%     -    0s
     0     0   65.66667    0   19   40.00000   65.66667  64.2%     -    0s
     0     0   65.66667    0   14   40.00000   65.66667  64.2%     -    0s
     0     0   65.25000    0   14   40.00000   65.25000  63.1%     -    0s
     0     0   65.25000    0   14   40.00000   65.25000  63.1%     -    0s
     0     2   65.25000    0   14   40.00000   65.25000  63.1%     -    0s

Cutting planes:
  Gomory: 4
  Cover: 7
  MIR: 1
  Inf proof: 11
  Zero half: 1

Explored 2530 nodes (16613 simplex iterations) in 0.15 seconds (0.07 work units)
Thread count was 16 (of 16 available processors)

Solution count 3: 40 37 16 

Optimal solution found (tolerance 1.00e-04)
Best objective 4.000000000000e+01, best bound 4.000000000000e+01, gap 0.0000%

Wrote result file '/root/bgw/data/results/2026_03_24_00_33_33_set_set_set_s003_g010_max.sol'

